#######################################################
#CASTEP cell file: data/data.cell
#Created using the Atomic Simulation Environment (ASE)#
#######################################################

%BLOCK LATTICE_CART
 9.880000  0.000000  0.000000
-4.940000  8.556331  0.000000
 0.000000  0.000000 20.033900
%ENDBLOCK LATTICE_CART

%BLOCK POSITIONS_ABS
H  2.471524  2.850950 11.583566
C  1.224333  0.715108 10.018772
C -0.005723 -0.001590  9.934771
C -0.003801  2.841984 10.018415
C -1.239617  2.134347  9.935044
C -1.232834  4.988891  9.985724
C -2.472548  4.274453  9.971126
C -2.473205  7.137442  9.986307
C -3.710839  6.419895  9.971196
C  3.712979  0.714731 10.019161
C  2.468306 -0.004154 10.028399
C  2.469022  2.851460 10.456341
C  1.203590  2.120973 10.103711
C  1.240569  4.998087 10.018816
C -0.005330  4.279897 10.027634
C -0.002530  7.131239  9.935743
C -1.235021  6.420494  9.971150
C  6.177376  0.710611  9.916151
C  4.943997 -0.001832  9.936709
C  4.941907  2.842475 10.019703
C  3.734355  2.120887 10.103018
C  3.697258  4.998386 10.019670
C  2.468980  4.312914 10.103747
C  2.469285  7.133678  9.915223
C  1.235041  6.423120  9.936067
C  8.643641  0.711334  9.914356
C  7.410746 -0.000797  9.900745
C  7.410148  2.852817  9.935287
C  6.178580  2.134934  9.936713
C  6.169286  4.989587  9.986844
C  4.942767  4.280404 10.029308
C  4.939499  7.131271  9.934592
C  3.702893  6.422932  9.935726
%ENDBLOCK POSITIONS_ABS

%BLOCK SPECIES_POT
H H_EXT_PBE_OTF.usp
C C_EXT_PBE_OTF.usp
%ENDBLOCK SPECIES_POT

SYMMETRY_GENERATE: TRUE
SYMMETRY_TOL: 0.001 
FIX_COM: FALSE
FIX_ALL_CELL: TRUE
KPOINT_MP_GRID: 4 4 1
