# CELL file written 13:32:52 (GMT+1.0) 27th October 2022 from run 4x4

%BLOCK lattice_cart
   ANG
       9.88000000000000        0.00000000000000        0.00000000000000    
      -4.94000000000000        8.55633100000000        0.00000000000000    
       0.00000000000000        0.00000000000000        20.0339000000000    
%ENDBLOCK lattice_cart

%BLOCK cell_constraints
      0   0   0
      0   0   0
%ENDBLOCK cell_constraints

%BLOCK positions_frac
   H              0.416753145377935       0.333197697927547       0.578198260002631
   C              0.165708546555892       0.083576498896458       0.500090932873307
   C             -0.000672156957220      -0.000185848652156       0.495897998706228
   C              0.165690147657648       0.332149794844352       0.500073116546962
   C             -0.000744014617829       0.249446564740371       0.495911642914710
   C              0.166751374928956       0.583064256833086       0.498441325152021
   C             -0.000474824019186       0.499566154749380       0.497712660519754
   C              0.166761002641006       0.834170858581676       0.498470435955647
   C             -0.000436284617993       0.750309354981753       0.497716178113171
   C              0.417573790900094       0.083532434054911       0.500110339015802
   C              0.249585791955006      -0.000485520714409       0.500571495869893
   C              0.416529648497824       0.333257320514956       0.521932398224528
   C              0.245762610460827       0.247883483613568       0.504330699200030
   C              0.417633108906618       0.584138989874570       0.500093152960469
   C              0.249561689401588       0.500202408970752       0.500533282222761
   C              0.416466860374905       0.833445950892870       0.495946537436302
   C              0.250187559864613       0.750379355071029       0.497713868593050
   C              0.666765884753572       0.083050881829572       0.494968587986685
   C              0.500297487464246      -0.000214153519318       0.495994720935365
   C              0.666296658164977       0.332207254083270       0.500137424732345
   C              0.501907785921390       0.247873363306199       0.504296136090910
   C              0.666303397877426       0.584173985860909       0.500135748705145
   C              0.501927382729592       0.504061153466290       0.504332531250491
   C              0.666793117122799       0.833730947277575       0.494922270635902
   C              0.500347269669800       0.750686281998799       0.495962716688021
   C              0.916430186382936       0.083135379747674       0.494878986784562
   C              0.750028957938560      -0.000093135364503       0.494199563881002
   C              0.916722930678993       0.333415908711430       0.495923758200434
   C              0.750119935282948       0.249515148654807       0.495994952771886
   C              0.915994463848341       0.583145667764443       0.498497234308464
   C              0.750410860250409       0.500261664093632       0.500616855812871
   C              0.916674071001305       0.833449624288063       0.495889070492874
   C              0.750118821539488       0.750664219871901       0.495945654104395
%ENDBLOCK positions_frac

FIX_COM : false

%BLOCK species_gamma
   radsectesla
   H          267522128.0    
%ENDBLOCK species_gamma

%BLOCK species_pot
   H       1|0.6|13|15|17|10(qc=8)
   C       1|1.2|17|20|23|20N:21L(qc=8)
%ENDBLOCK species_pot

SYMMETRY_TOL :     0.001000

%BLOCK symmetry_ops
# Symm. op. 1       E
          1.000000000000000       0.000000000000000       0.000000000000000
          0.000000000000000       1.000000000000000       0.000000000000000
          0.000000000000000       0.000000000000000       1.000000000000000
          0.000000000000000       0.000000000000000       0.000000000000000
%ENDBLOCK symmetry_ops

kpoint_mp_grid :    4   4   1

